(set-logic HORN)
(set-info :source |
    Benchmark: C_VC
    Output by Princess (http://www.philipp.ruemmer.org/princess.shtml)
|)
(set-info :status unsat)
(declare-fun inv_main116 (Int Int Int Int Int Int Int Int Int Int Int Int Int Int Int Int Int Int Int Int Int Int Int) Bool)
(declare-fun inv_main130 (Int Int Int Int Int Int Int Int Int Int Int Int Int Int Int Int Int Int Int Int Int Int Int) Bool)
(declare-fun inv_main133 (Int Int Int Int Int Int Int Int Int Int Int Int Int Int Int Int Int Int Int Int Int Int Int) Bool)
(declare-fun inv_main150 (Int Int Int Int Int Int Int Int Int Int Int Int Int Int Int Int Int Int Int Int Int) Bool)
(declare-fun inv_main167 (Int Int Int Int Int Int Int Int Int Int Int Int Int Int Int Int Int Int Int Int Int Int) Bool)
(declare-fun inv_main197 (Int Int Int Int Int Int Int Int Int Int Int Int Int Int Int Int Int Int Int Int Int Int) Bool)
(declare-fun inv_main215 (Int Int Int Int Int Int Int Int Int Int Int Int Int Int Int Int Int Int Int Int Int Int Int Int) Bool)
(declare-fun inv_main218 (Int Int Int Int Int Int Int Int Int Int Int Int Int Int Int Int Int Int Int Int Int Int Int Int) Bool)
(declare-fun inv_main241 (Int Int Int Int Int Int Int Int Int Int Int Int Int Int Int Int Int Int Int Int Int Int) Bool)
(declare-fun inv_main246 (Int Int Int Int Int Int Int Int Int Int Int Int Int Int Int Int Int Int Int Int Int Int) Bool)
(declare-fun inv_main3 (Int Int Int Int Int Int Int Int Int Int Int Int Int Int Int Int) Bool)
(declare-fun inv_main49 (Int Int Int Int Int Int Int Int Int Int Int Int Int Int Int Int Int Int Int Int Int) Bool)
(declare-fun inv_main54 (Int Int Int Int Int Int Int Int Int Int Int Int Int Int Int Int Int Int Int Int Int) Bool)
(declare-fun inv_main72 (Int Int Int Int Int Int Int Int Int Int Int Int Int Int Int Int Int Int Int Int Int) Bool)
(declare-fun inv_main84 (Int Int Int Int Int Int Int Int Int Int Int Int Int Int Int Int Int Int Int Int Int) Bool)
(declare-fun inv_main95 (Int Int Int Int Int Int Int Int Int Int Int Int Int Int Int Int Int Int Int Int Int) Bool)
(assert (forall ((var0 Int)) (inv_main3 0 0 0 0 0 0 0 0 0 0 0 0 0 0 0 var0)))
(assert (forall ((var0 Int) (var1 Int) (var2 Int) (var3 Int) (var4 Int) (var5 Int) (var6 Int) (var7 Int) (var8 Int) (var9 Int) (var10 Int) (var11 Int) (var12 Int) (var13 Int) (var14 Int) (var15 Int) (var16 Int) (var17 Int) (var18 Int) (var19 Int) (var20 Int) (var21 Int) (var22 Int)) (or (not (and (inv_main130 var22 var21 var20 var19 var18 var17 var16 var15 var14 var13 var12 var11 var10 var9 var8 var7 var6 var5 var4 var3 var2 var1 var0) (and (= var19 1) (= var10 1)))) (inv_main133 var22 var21 var20 var19 var18 var17 var16 var15 var14 var13 var12 var11 var10 var9 var8 var7 var6 var5 var4 var3 var2 var1 1))))
(assert (forall ((var0 Int) (var1 Int) (var2 Int) (var3 Int) (var4 Int) (var5 Int) (var6 Int) (var7 Int) (var8 Int) (var9 Int) (var10 Int) (var11 Int) (var12 Int) (var13 Int) (var14 Int) (var15 Int) (var16 Int) (var17 Int) (var18 Int) (var19 Int) (var20 Int) (var21 Int) (var22 Int)) (or (not (and (inv_main130 var22 var21 var20 var19 var18 var17 var16 var15 var14 var13 var12 var11 var10 var9 var8 var7 var6 var5 var4 var3 var2 var1 var0) (not (= var10 1)))) (inv_main133 var22 var21 var20 var19 var18 var17 var16 var15 var14 var13 var12 var11 var10 var9 var8 var7 var6 var5 var4 var3 var2 var1 0))))
(assert (forall ((var0 Int) (var1 Int) (var2 Int) (var3 Int) (var4 Int) (var5 Int) (var6 Int) (var7 Int) (var8 Int) (var9 Int) (var10 Int) (var11 Int) (var12 Int) (var13 Int) (var14 Int) (var15 Int) (var16 Int) (var17 Int) (var18 Int) (var19 Int) (var20 Int) (var21 Int) (var22 Int)) (or (not (and (inv_main130 var22 var21 var20 var19 var18 var17 var16 var15 var14 var13 var12 var11 var10 var9 var8 var7 var6 var5 var4 var3 var2 var1 var0) (and (not (= var19 1)) (= var10 1)))) (inv_main133 var22 var21 var20 var19 var18 var17 var16 var15 var14 var13 var12 var11 var10 var9 var8 var7 var6 var5 var4 var3 var2 var1 0))))
(assert (forall ((var0 Int) (var1 Int) (var2 Int) (var3 Int) (var4 Int) (var5 Int) (var6 Int) (var7 Int) (var8 Int) (var9 Int) (var10 Int) (var11 Int) (var12 Int) (var13 Int) (var14 Int) (var15 Int) (var16 Int) (var17 Int) (var18 Int) (var19 Int) (var20 Int) (var21 Int)) (or (not (and (inv_main54 var21 var20 var19 var18 var17 var16 var15 var14 var13 var12 var11 var10 var9 var8 var7 var6 var5 var4 var3 var2 var1) (and (= var0 0) (and (= var15 0) (not (= var1 0)))))) (inv_main150 var21 var20 var19 var18 var17 var16 var15 var14 var13 var12 var11 var10 var9 var8 var7 var6 var5 var4 var0 var2 var1))))
(assert (forall ((var0 Int) (var1 Int) (var2 Int) (var3 Int) (var4 Int) (var5 Int) (var6 Int) (var7 Int) (var8 Int) (var9 Int) (var10 Int) (var11 Int) (var12 Int) (var13 Int) (var14 Int) (var15 Int) (var16 Int) (var17 Int) (var18 Int) (var19 Int) (var20 Int) (var21 Int) (var22 Int)) (or (not (and (inv_main95 var22 var21 var20 var19 var18 var17 var16 var15 var14 var13 var12 var11 var10 var9 var8 var7 var6 var5 var4 var3 var2) (and (= var20 1) (= var15 1)))) (inv_main116 var1 0 var20 1 (+ var18 1) var1 var16 var15 var14 var13 var12 var11 var10 var9 var8 var7 var6 var5 var4 var3 var2 1 var0))))
(assert (forall ((var0 Int) (var1 Int) (var2 Int) (var3 Int) (var4 Int) (var5 Int) (var6 Int) (var7 Int) (var8 Int) (var9 Int) (var10 Int) (var11 Int) (var12 Int) (var13 Int) (var14 Int) (var15 Int) (var16 Int) (var17 Int) (var18 Int) (var19 Int) (var20 Int) (var21 Int) (var22 Int)) (or (not (and (inv_main95 var22 var21 var20 var19 var18 var17 var16 var15 var14 var13 var12 var11 var10 var9 var8 var7 var6 var5 var4 var3 var2) (not (= var15 1)))) (inv_main116 var1 0 var20 1 (+ var18 1) var1 var16 var15 var14 var13 var12 var11 var10 var9 var8 var7 var6 var5 var4 var3 var2 0 var0))))
(assert (forall ((var0 Int) (var1 Int) (var2 Int) (var3 Int) (var4 Int) (var5 Int) (var6 Int) (var7 Int) (var8 Int) (var9 Int) (var10 Int) (var11 Int) (var12 Int) (var13 Int) (var14 Int) (var15 Int) (var16 Int) (var17 Int) (var18 Int) (var19 Int) (var20 Int) (var21 Int) (var22 Int)) (or (not (and (inv_main95 var22 var21 var20 var19 var18 var17 var16 var15 var14 var13 var12 var11 var10 var9 var8 var7 var6 var5 var4 var3 var2) (and (not (= var20 1)) (= var15 1)))) (inv_main116 var1 0 var20 1 (+ var18 1) var1 var16 var15 var14 var13 var12 var11 var10 var9 var8 var7 var6 var5 var4 var3 var2 0 var0))))
(assert (forall ((var0 Int) (var1 Int) (var2 Int) (var3 Int) (var4 Int) (var5 Int) (var6 Int) (var7 Int) (var8 Int) (var9 Int) (var10 Int) (var11 Int) (var12 Int) (var13 Int) (var14 Int) (var15 Int) (var16 Int) (var17 Int) (var18 Int) (var19 Int) (var20 Int) (var21 Int)) (or (not (and (inv_main54 var21 var20 var19 var18 var17 var16 var15 var14 var13 var12 var11 var10 var9 var8 var7 var6 var5 var4 var3 var2 var1) (and (= var14 1) (and (not (= var14 0)) (and (not (= var0 0)) (and (= var15 0) (not (= var1 0)))))))) (inv_main95 var21 var20 var19 var18 var17 var16 1 var14 var13 var12 var11 var10 var9 var8 var7 var6 var5 var4 var0 var2 var1))))
(assert (forall ((var0 Int) (var1 Int) (var2 Int) (var3 Int) (var4 Int) (var5 Int) (var6 Int) (var7 Int) (var8 Int) (var9 Int) (var10 Int) (var11 Int) (var12 Int) (var13 Int) (var14 Int) (var15 Int) (var16 Int) (var17 Int) (var18 Int) (var19 Int) (var20 Int)) (or (not (and (inv_main84 var20 var19 var18 var17 var16 var15 var14 var13 var12 var11 var10 var9 var8 var7 var6 var5 var4 var3 var2 var1 var0) (not (= var19 0)))) (inv_main95 var20 var19 var18 var17 var16 var15 var14 var13 var12 var11 var10 var9 var8 var7 var6 var5 var4 var3 var2 var1 var0))))
(assert (forall ((var0 Int) (var1 Int) (var2 Int) (var3 Int) (var4 Int) (var5 Int) (var6 Int) (var7 Int) (var8 Int) (var9 Int) (var10 Int) (var11 Int) (var12 Int) (var13 Int) (var14 Int) (var15 Int) (var16 Int) (var17 Int) (var18 Int) (var19 Int) (var20 Int) (var21 Int)) (or (not (and (inv_main54 var21 var20 var19 var18 var17 var16 var15 var14 var13 var12 var11 var10 var9 var8 var7 var6 var5 var4 var3 var2 var1) (and (= var14 0) (and (not (= var0 0)) (and (= var15 0) (not (= var1 0))))))) (inv_main84 var21 var20 var19 var18 var17 var16 1 var14 var13 var12 var11 var10 var9 var8 var7 var6 var5 var4 var0 var2 var1))))
(assert (forall ((var0 Int) (var1 Int) (var2 Int) (var3 Int) (var4 Int) (var5 Int) (var6 Int) (var7 Int) (var8 Int) (var9 Int) (var10 Int) (var11 Int) (var12 Int) (var13 Int) (var14 Int) (var15 Int) (var16 Int) (var17 Int) (var18 Int) (var19 Int) (var20 Int) (var21 Int)) (or (not (and (inv_main54 var21 var20 var19 var18 var17 var16 var15 var14 var13 var12 var11 var10 var9 var8 var7 var6 var5 var4 var3 var2 var1) (and (not (= var14 1)) (and (not (= var14 0)) (and (not (= var0 0)) (and (= var15 0) (not (= var1 0)))))))) (inv_main84 var21 var20 var19 var18 var17 var16 1 var14 var13 var12 var11 var10 var9 var8 var7 var6 var5 var4 var0 var2 var1))))
(assert (forall ((var0 Int) (var1 Int) (var2 Int) (var3 Int) (var4 Int) (var5 Int) (var6 Int) (var7 Int) (var8 Int) (var9 Int) (var10 Int) (var11 Int) (var12 Int) (var13 Int) (var14 Int) (var15 Int) (var16 Int) (var17 Int) (var18 Int) (var19 Int) (var20 Int) (var21 Int) (var22 Int)) (or (not (and (inv_main133 var22 var21 var20 var19 var18 var17 var16 var15 var14 var13 var12 var11 var10 var9 var8 var7 var6 var5 var4 var3 var2 var1 var0) (not (= var0 0)))) (inv_main84 var22 var21 var20 2 var18 var17 var16 var15 var14 var13 var12 0 var10 var9 var8 var7 var6 var5 var4 var3 var2))))
(assert (forall ((var0 Int) (var1 Int) (var2 Int) (var3 Int) (var4 Int) (var5 Int) (var6 Int) (var7 Int) (var8 Int) (var9 Int) (var10 Int) (var11 Int) (var12 Int) (var13 Int) (var14 Int) (var15 Int) (var16 Int) (var17 Int) (var18 Int) (var19 Int) (var20 Int) (var21 Int) (var22 Int)) (or (not (and (inv_main133 var22 var21 var20 var19 var18 var17 var16 var15 var14 var13 var12 var11 var10 var9 var8 var7 var6 var5 var4 var3 var2 var1 var0) (= var0 0))) (inv_main84 var22 var21 var20 2 var18 var17 var16 var15 var14 var13 var12 var11 var10 var9 var8 var7 var6 var5 var4 var3 var2))))
(assert (forall ((var0 Int) (var1 Int) (var2 Int) (var3 Int) (var4 Int) (var5 Int) (var6 Int) (var7 Int) (var8 Int) (var9 Int) (var10 Int) (var11 Int) (var12 Int) (var13 Int) (var14 Int) (var15 Int) (var16 Int) (var17 Int) (var18 Int) (var19 Int) (var20 Int) (var21 Int) (var22 Int)) (or (not (and (inv_main116 var22 var21 var20 var19 var18 var17 var16 var15 var14 var13 var12 var11 var10 var9 var8 var7 var6 var5 var4 var3 var2 var1 var0) (not (= var1 0)))) (inv_main130 var22 var21 var20 var19 var18 var17 0 var15 var14 var13 var12 var11 var10 var9 var8 var7 var6 var5 var4 var3 var2 var1 var0))))
(assert (forall ((var0 Int) (var1 Int) (var2 Int) (var3 Int) (var4 Int) (var5 Int) (var6 Int) (var7 Int) (var8 Int) (var9 Int) (var10 Int) (var11 Int) (var12 Int) (var13 Int) (var14 Int) (var15 Int) (var16 Int) (var17 Int) (var18 Int) (var19 Int) (var20 Int) (var21 Int) (var22 Int)) (or (not (and (inv_main116 var22 var21 var20 var19 var18 var17 var16 var15 var14 var13 var12 var11 var10 var9 var8 var7 var6 var5 var4 var3 var2 var1 var0) (= var1 0))) (inv_main130 var22 var21 var20 var19 var18 var17 var16 var15 var14 var13 var12 var11 var10 var9 var8 var7 var6 var5 var4 var3 var2 var1 var0))))
(assert (forall ((var0 Int) (var1 Int) (var2 Int) (var3 Int) (var4 Int) (var5 Int) (var6 Int) (var7 Int) (var8 Int) (var9 Int) (var10 Int) (var11 Int) (var12 Int) (var13 Int) (var14 Int) (var15 Int) (var16 Int) (var17 Int) (var18 Int) (var19 Int) (var20 Int) (var21 Int) (var22 Int) (var23 Int)) (or (not (and (inv_main218 var23 var22 var21 var20 var19 var18 var17 var16 var15 var14 var13 var12 var11 var10 var9 var8 var7 var6 var5 var4 var3 var2 var1 var0) (not (= var0 0)))) (inv_main197 var23 var22 var21 var20 var19 var18 var17 var16 var15 var14 var13 0 var11 var10 var9 var8 var7 var6 var5 var4 var3 var2))))
(assert (forall ((var0 Int) (var1 Int) (var2 Int) (var3 Int) (var4 Int) (var5 Int) (var6 Int) (var7 Int) (var8 Int) (var9 Int) (var10 Int) (var11 Int) (var12 Int) (var13 Int) (var14 Int) (var15 Int) (var16 Int) (var17 Int) (var18 Int) (var19 Int) (var20 Int) (var21 Int) (var22 Int) (var23 Int)) (or (not (and (inv_main218 var23 var22 var21 var20 var19 var18 var17 var16 var15 var14 var13 var12 var11 var10 var9 var8 var7 var6 var5 var4 var3 var2 var1 var0) (= var0 0))) (inv_main197 var23 var22 var21 var20 var19 var18 var17 var16 var15 var14 var13 var12 var11 var10 var9 var8 var7 var6 var5 var4 var3 var2))))
(assert (forall ((var0 Int) (var1 Int) (var2 Int) (var3 Int) (var4 Int) (var5 Int) (var6 Int) (var7 Int) (var8 Int) (var9 Int) (var10 Int) (var11 Int) (var12 Int) (var13 Int) (var14 Int) (var15 Int) (var16 Int) (var17 Int) (var18 Int) (var19 Int) (var20 Int) (var21 Int)) (or (not (and (inv_main197 var21 var20 var19 var18 var17 var16 var15 var14 var13 var12 var11 var10 var9 var8 var7 var6 var5 var4 var3 var2 var1 var0) (and (not (= var17 var12)) (= var16 var11)))) (inv_main241 var21 var20 2 var18 var17 var16 var15 var14 var13 var12 var11 var10 var9 var8 var7 var6 var5 var4 var3 var2 var1 var0))))
(assert (forall ((var0 Int) (var1 Int) (var2 Int) (var3 Int) (var4 Int) (var5 Int) (var6 Int) (var7 Int) (var8 Int) (var9 Int) (var10 Int) (var11 Int) (var12 Int) (var13 Int) (var14 Int) (var15 Int) (var16 Int) (var17 Int) (var18 Int) (var19 Int) (var20 Int) (var21 Int)) (or (not (and (inv_main197 var21 var20 var19 var18 var17 var16 var15 var14 var13 var12 var11 var10 var9 var8 var7 var6 var5 var4 var3 var2 var1 var0) (and (= var17 var12) (= var16 var11)))) (inv_main167 var21 var20 2 var18 var17 var16 var15 var14 var13 var12 var11 var10 var9 var8 var7 var6 var5 var4 var3 var2 var1 var0))))
(assert (forall ((var0 Int) (var1 Int) (var2 Int) (var3 Int) (var4 Int) (var5 Int) (var6 Int) (var7 Int) (var8 Int) (var9 Int) (var10 Int) (var11 Int) (var12 Int) (var13 Int) (var14 Int) (var15 Int) (var16 Int) (var17 Int) (var18 Int) (var19 Int) (var20 Int) (var21 Int) (var22 Int)) (or (not (and (inv_main72 var22 var21 var20 var19 var18 var17 var16 var15 var14 var13 var12 var11 var10 var9 var8 var7 var6 var5 var4 var3 var2) (and (= var10 0) (and (not (= var1 0)) (= var11 0))))) (inv_main167 var22 var21 var20 var19 var18 var17 var16 var15 var14 var13 var12 1 var10 var9 var8 var7 var6 var5 var4 var1 var2 var0))))
(assert (forall ((var0 Int) (var1 Int) (var2 Int) (var3 Int) (var4 Int) (var5 Int) (var6 Int) (var7 Int) (var8 Int) (var9 Int) (var10 Int) (var11 Int) (var12 Int) (var13 Int) (var14 Int) (var15 Int) (var16 Int) (var17 Int) (var18 Int) (var19 Int) (var20 Int) (var21 Int) (var22 Int)) (or (not (and (inv_main72 var22 var21 var20 var19 var18 var17 var16 var15 var14 var13 var12 var11 var10 var9 var8 var7 var6 var5 var4 var3 var2) (and (and (not (= var10 1)) (not (= var10 0))) (and (not (= var1 0)) (= var11 0))))) (inv_main167 var22 var21 var20 var19 var18 var17 var16 var15 var14 var13 var12 1 var10 var9 var8 var7 var6 var5 var4 var1 var2 var0))))
(assert (forall ((var0 Int) (var1 Int) (var2 Int) (var3 Int) (var4 Int) (var5 Int) (var6 Int) (var7 Int) (var8 Int) (var9 Int) (var10 Int) (var11 Int) (var12 Int) (var13 Int) (var14 Int) (var15 Int) (var16 Int) (var17 Int) (var18 Int) (var19 Int) (var20 Int)) (or (not (and (inv_main72 var20 var19 var18 var17 var16 var15 var14 var13 var12 var11 var10 var9 var8 var7 var6 var5 var4 var3 var2 var1 var0) (not (= var9 0)))) (inv_main49 var20 var19 var18 var17 var16 var15 var14 var13 var12 var11 var10 var9 var8 var7 var6 var5 var4 var3 var2 var1 var0))))
(assert (forall ((var0 Int) (var1 Int) (var2 Int) (var3 Int) (var4 Int) (var5 Int) (var6 Int) (var7 Int) (var8 Int) (var9 Int) (var10 Int) (var11 Int) (var12 Int) (var13 Int) (var14 Int) (var15 Int) (var16 Int) (var17 Int) (var18 Int) (var19 Int) (var20 Int) (var21 Int)) (or (not (and (inv_main72 var21 var20 var19 var18 var17 var16 var15 var14 var13 var12 var11 var10 var9 var8 var7 var6 var5 var4 var3 var2 var1) (and (= var0 0) (= var10 0)))) (inv_main49 var21 var20 var19 var18 var17 var16 var15 var14 var13 var12 var11 var10 var9 var8 var7 var6 var5 var4 var3 var0 var1))))
(assert (forall ((var0 Int) (var1 Int) (var2 Int) (var3 Int) (var4 Int) (var5 Int) (var6 Int) (var7 Int) (var8 Int) (var9 Int) (var10 Int) (var11 Int) (var12 Int) (var13 Int) (var14 Int) (var15 Int) (var16 Int) (var17 Int) (var18 Int) (var19 Int) (var20 Int) (var21 Int)) (or (not (and (inv_main167 var21 var20 var19 var18 var17 var16 var15 var14 var13 var12 var11 var10 var9 var8 var7 var6 var5 var4 var3 var2 var1 var0) (= var20 1))) (inv_main49 var21 var20 var19 var18 var17 var16 var15 var14 var13 var12 var11 2 1 var8 var0 var6 var5 var4 var3 var2 var1))))
(assert (forall ((var0 Int) (var1 Int) (var2 Int) (var3 Int) (var4 Int) (var5 Int) (var6 Int) (var7 Int) (var8 Int) (var9 Int) (var10 Int) (var11 Int) (var12 Int) (var13 Int) (var14 Int) (var15 Int) (var16 Int) (var17 Int) (var18 Int) (var19 Int)) (or (not (inv_main3 var19 var18 var17 var16 var15 var14 var13 var12 var11 var10 var9 var8 var7 var6 var5 var4)) (inv_main49 var19 1 2 2 0 var14 0 0 1 0 var9 0 0 1 var5 var4 1 var3 var2 var1 var0))))
(assert (forall ((var0 Int) (var1 Int) (var2 Int) (var3 Int) (var4 Int) (var5 Int) (var6 Int) (var7 Int) (var8 Int) (var9 Int) (var10 Int) (var11 Int) (var12 Int) (var13 Int) (var14 Int) (var15 Int) (var16 Int) (var17 Int) (var18 Int) (var19 Int) (var20 Int) (var21 Int) (var22 Int) (var23 Int)) (or (not (and (inv_main54 var23 var22 var21 var20 var19 var18 var17 var16 var15 var14 var13 var12 var11 var10 var9 var8 var7 var6 var5 var4 var3) (and (= var17 0) (= var3 0)))) (inv_main49 var23 var22 var21 var20 var19 var18 var17 var16 var15 var14 var13 var12 var11 var10 var9 var8 1 0 var2 var1 var0))))
(assert (forall ((var0 Int) (var1 Int) (var2 Int) (var3 Int) (var4 Int) (var5 Int) (var6 Int) (var7 Int) (var8 Int) (var9 Int) (var10 Int) (var11 Int) (var12 Int) (var13 Int) (var14 Int) (var15 Int) (var16 Int) (var17 Int) (var18 Int) (var19 Int) (var20 Int) (var21 Int) (var22 Int) (var23 Int)) (or (not (and (inv_main54 var23 var22 var21 var20 var19 var18 var17 var16 var15 var14 var13 var12 var11 var10 var9 var8 var7 var6 var5 var4 var3) (and (and (= var12 0) (not (= var17 0))) (= var3 0)))) (inv_main49 var23 var22 var21 var20 var19 var18 var17 var16 var15 var14 var13 var12 var11 var10 var9 var8 1 0 var2 var1 var0))))
(assert (forall ((var0 Int) (var1 Int) (var2 Int) (var3 Int) (var4 Int) (var5 Int) (var6 Int) (var7 Int) (var8 Int) (var9 Int) (var10 Int) (var11 Int) (var12 Int) (var13 Int) (var14 Int) (var15 Int) (var16 Int) (var17 Int) (var18 Int) (var19 Int) (var20 Int) (var21 Int)) (or (not (and (inv_main197 var21 var20 var19 var18 var17 var16 var15 var14 var13 var12 var11 var10 var9 var8 var7 var6 var5 var4 var3 var2 var1 var0) (not (= var16 var11)))) (inv_main246 var21 var20 2 var18 var17 var16 var15 var14 var13 var12 var11 var10 var9 var8 var7 var6 var5 var4 var3 var2 var1 var0))))
(assert (forall ((var0 Int) (var1 Int) (var2 Int) (var3 Int) (var4 Int) (var5 Int) (var6 Int) (var7 Int) (var8 Int) (var9 Int) (var10 Int) (var11 Int) (var12 Int) (var13 Int) (var14 Int) (var15 Int) (var16 Int) (var17 Int) (var18 Int) (var19 Int) (var20 Int) (var21 Int) (var22 Int) (var23 Int)) (or (not (and (inv_main215 var23 var22 var21 var20 var19 var18 var17 var16 var15 var14 var13 var12 var11 var10 var9 var8 var7 var6 var5 var4 var3 var2 var1 var0) (and (= var20 1) (= var11 1)))) (inv_main218 var23 var22 var21 var20 var19 var18 var17 var16 var15 var14 var13 var12 var11 var10 var9 var8 var7 var6 var5 var4 var3 var2 var1 1))))
(assert (forall ((var0 Int) (var1 Int) (var2 Int) (var3 Int) (var4 Int) (var5 Int) (var6 Int) (var7 Int) (var8 Int) (var9 Int) (var10 Int) (var11 Int) (var12 Int) (var13 Int) (var14 Int) (var15 Int) (var16 Int) (var17 Int) (var18 Int) (var19 Int) (var20 Int) (var21 Int) (var22 Int) (var23 Int)) (or (not (and (inv_main215 var23 var22 var21 var20 var19 var18 var17 var16 var15 var14 var13 var12 var11 var10 var9 var8 var7 var6 var5 var4 var3 var2 var1 var0) (not (= var11 1)))) (inv_main218 var23 var22 var21 var20 var19 var18 var17 var16 var15 var14 var13 var12 var11 var10 var9 var8 var7 var6 var5 var4 var3 var2 var1 0))))
(assert (forall ((var0 Int) (var1 Int) (var2 Int) (var3 Int) (var4 Int) (var5 Int) (var6 Int) (var7 Int) (var8 Int) (var9 Int) (var10 Int) (var11 Int) (var12 Int) (var13 Int) (var14 Int) (var15 Int) (var16 Int) (var17 Int) (var18 Int) (var19 Int) (var20 Int) (var21 Int) (var22 Int) (var23 Int)) (or (not (and (inv_main215 var23 var22 var21 var20 var19 var18 var17 var16 var15 var14 var13 var12 var11 var10 var9 var8 var7 var6 var5 var4 var3 var2 var1 var0) (and (not (= var20 1)) (= var11 1)))) (inv_main218 var23 var22 var21 var20 var19 var18 var17 var16 var15 var14 var13 var12 var11 var10 var9 var8 var7 var6 var5 var4 var3 var2 var1 0))))
(assert (forall ((var0 Int) (var1 Int) (var2 Int) (var3 Int) (var4 Int) (var5 Int) (var6 Int) (var7 Int) (var8 Int) (var9 Int) (var10 Int) (var11 Int) (var12 Int) (var13 Int) (var14 Int) (var15 Int) (var16 Int) (var17 Int) (var18 Int) (var19 Int) (var20 Int)) (or (not (and (inv_main49 var20 var19 var18 var17 var16 var15 var14 var13 var12 var11 var10 var9 var8 var7 var6 var5 var4 var3 var2 var1 var0) (= var14 0))) (inv_main54 var20 var19 var18 var17 var16 var15 var14 var13 var12 var11 var10 var9 var8 var7 var6 var5 var4 var3 var2 var1 1))))
(assert (forall ((var0 Int) (var1 Int) (var2 Int) (var3 Int) (var4 Int) (var5 Int) (var6 Int) (var7 Int) (var8 Int) (var9 Int) (var10 Int) (var11 Int) (var12 Int) (var13 Int) (var14 Int) (var15 Int) (var16 Int) (var17 Int) (var18 Int) (var19 Int) (var20 Int)) (or (not (and (inv_main49 var20 var19 var18 var17 var16 var15 var14 var13 var12 var11 var10 var9 var8 var7 var6 var5 var4 var3 var2 var1 var0) (and (= var9 0) (not (= var14 0))))) (inv_main54 var20 var19 var18 var17 var16 var15 var14 var13 var12 var11 var10 var9 var8 var7 var6 var5 var4 var3 var2 var1 1))))
(assert (forall ((var0 Int) (var1 Int) (var2 Int) (var3 Int) (var4 Int) (var5 Int) (var6 Int) (var7 Int) (var8 Int) (var9 Int) (var10 Int) (var11 Int) (var12 Int) (var13 Int) (var14 Int) (var15 Int) (var16 Int) (var17 Int) (var18 Int) (var19 Int) (var20 Int)) (or (not (and (inv_main49 var20 var19 var18 var17 var16 var15 var14 var13 var12 var11 var10 var9 var8 var7 var6 var5 var4 var3 var2 var1 var0) (and (not (= var9 0)) (not (= var14 0))))) (inv_main54 var20 var19 var18 var17 var16 var15 var14 var13 var12 var11 var10 var9 var8 var7 var6 var5 var4 var3 var2 var1 0))))
(assert (forall ((var0 Int) (var1 Int) (var2 Int) (var3 Int) (var4 Int) (var5 Int) (var6 Int) (var7 Int) (var8 Int) (var9 Int) (var10 Int) (var11 Int) (var12 Int) (var13 Int) (var14 Int) (var15 Int) (var16 Int) (var17 Int) (var18 Int) (var19 Int) (var20 Int) (var21 Int) (var22 Int)) (or (not (and (inv_main167 var22 var21 var20 var19 var18 var17 var16 var15 var14 var13 var12 var11 var10 var9 var8 var7 var6 var5 var4 var3 var2 var1) (and (= var15 1) (not (= var21 1))))) (inv_main215 var22 1 1 var19 var18 var17 0 var15 var14 (+ var13 1) var22 var11 var10 var9 var8 var7 var6 var5 var4 var3 var2 var22 1 var0))))
(assert (forall ((var0 Int) (var1 Int) (var2 Int) (var3 Int) (var4 Int) (var5 Int) (var6 Int) (var7 Int) (var8 Int) (var9 Int) (var10 Int) (var11 Int) (var12 Int) (var13 Int) (var14 Int) (var15 Int) (var16 Int) (var17 Int) (var18 Int) (var19 Int) (var20 Int) (var21 Int) (var22 Int)) (or (not (and (inv_main167 var22 var21 var20 var19 var18 var17 var16 var15 var14 var13 var12 var11 var10 var9 var8 var7 var6 var5 var4 var3 var2 var1) (and (not (= var15 1)) (not (= var21 1))))) (inv_main215 var22 1 1 var19 var18 var17 var16 var15 var14 (+ var13 1) var22 var11 var10 var9 var8 var7 var6 var5 var4 var3 var2 var22 0 var0))))
(assert (forall ((var0 Int) (var1 Int) (var2 Int) (var3 Int) (var4 Int) (var5 Int) (var6 Int) (var7 Int) (var8 Int) (var9 Int) (var10 Int) (var11 Int) (var12 Int) (var13 Int) (var14 Int) (var15 Int) (var16 Int) (var17 Int) (var18 Int) (var19 Int) (var20 Int) (var21 Int) (var22 Int)) (or (not (and (inv_main72 var22 var21 var20 var19 var18 var17 var16 var15 var14 var13 var12 var11 var10 var9 var8 var7 var6 var5 var4 var3 var2) (and (and (= var15 1) (and (= var10 1) (not (= var10 0)))) (and (not (= var1 0)) (= var11 0))))) (inv_main215 var22 1 1 var19 var18 var17 0 var15 var14 (+ var13 1) var22 1 var10 var9 var8 var7 var6 var5 var4 var1 var2 var22 1 var0))))
(assert (forall ((var0 Int) (var1 Int) (var2 Int) (var3 Int) (var4 Int) (var5 Int) (var6 Int) (var7 Int) (var8 Int) (var9 Int) (var10 Int) (var11 Int) (var12 Int) (var13 Int) (var14 Int) (var15 Int) (var16 Int) (var17 Int) (var18 Int) (var19 Int) (var20 Int) (var21 Int) (var22 Int)) (or (not (and (inv_main72 var22 var21 var20 var19 var18 var17 var16 var15 var14 var13 var12 var11 var10 var9 var8 var7 var6 var5 var4 var3 var2) (and (and (not (= var15 1)) (and (= var10 1) (not (= var10 0)))) (and (not (= var1 0)) (= var11 0))))) (inv_main215 var22 1 1 var19 var18 var17 var16 var15 var14 (+ var13 1) var22 1 var10 var9 var8 var7 var6 var5 var4 var1 var2 var22 0 var0))))
(assert (forall ((var0 Int) (var1 Int) (var2 Int) (var3 Int) (var4 Int) (var5 Int) (var6 Int) (var7 Int) (var8 Int) (var9 Int) (var10 Int) (var11 Int) (var12 Int) (var13 Int) (var14 Int) (var15 Int) (var16 Int) (var17 Int) (var18 Int) (var19 Int) (var20 Int)) (or (not (and (inv_main54 var20 var19 var18 var17 var16 var15 var14 var13 var12 var11 var10 var9 var8 var7 var6 var5 var4 var3 var2 var1 var0) (and (not (= var14 0)) (not (= var0 0))))) (inv_main72 var20 var19 var18 var17 var16 var15 var14 var13 var12 var11 var10 var9 var8 var7 var6 var5 var4 var3 var2 var1 var0))))
(assert (forall ((var0 Int) (var1 Int) (var2 Int) (var3 Int) (var4 Int) (var5 Int) (var6 Int) (var7 Int) (var8 Int) (var9 Int) (var10 Int) (var11 Int) (var12 Int) (var13 Int) (var14 Int) (var15 Int) (var16 Int) (var17 Int) (var18 Int) (var19 Int) (var20 Int)) (or (not (and (inv_main84 var20 var19 var18 var17 var16 var15 var14 var13 var12 var11 var10 var9 var8 var7 var6 var5 var4 var3 var2 var1 var0) (= var19 0))) (inv_main72 var20 var19 var18 var17 var16 var15 2 1 var12 var11 var10 var9 var8 var7 var6 var5 var4 var3 var2 var1 var0))))
(assert (forall ((var0 Int) (var1 Int) (var2 Int) (var3 Int) (var4 Int) (var5 Int) (var6 Int) (var7 Int) (var8 Int) (var9 Int) (var10 Int) (var11 Int) (var12 Int) (var13 Int) (var14 Int) (var15 Int) (var16 Int) (var17 Int) (var18 Int) (var19 Int) (var20 Int)) (not (inv_main150 var20 var19 var18 var17 var16 var15 var14 var13 var12 var11 var10 var9 var8 var7 var6 var5 var4 var3 var2 var1 var0))))
(assert (forall ((var0 Int) (var1 Int) (var2 Int) (var3 Int) (var4 Int) (var5 Int) (var6 Int) (var7 Int) (var8 Int) (var9 Int) (var10 Int) (var11 Int) (var12 Int) (var13 Int) (var14 Int) (var15 Int) (var16 Int) (var17 Int) (var18 Int) (var19 Int) (var20 Int) (var21 Int)) (not (inv_main241 var21 var20 var19 var18 var17 var16 var15 var14 var13 var12 var11 var10 var9 var8 var7 var6 var5 var4 var3 var2 var1 var0))))
(assert (forall ((var0 Int) (var1 Int) (var2 Int) (var3 Int) (var4 Int) (var5 Int) (var6 Int) (var7 Int) (var8 Int) (var9 Int) (var10 Int) (var11 Int) (var12 Int) (var13 Int) (var14 Int) (var15 Int) (var16 Int) (var17 Int) (var18 Int) (var19 Int) (var20 Int) (var21 Int)) (not (inv_main246 var21 var20 var19 var18 var17 var16 var15 var14 var13 var12 var11 var10 var9 var8 var7 var6 var5 var4 var3 var2 var1 var0))))
(check-sat)
